70 170910
36 60 51 12 37 22 4 67 66 15 19 63 64 33 29 40 47 43 57 31 16 6 34 26 2 45 25 58 59 69 41 65 70 23 32 14 5 24 28 53 68 10 20 39 48 50 3 49 21 1 11 30 56 9 13 44 62 54 46 61 8 27 52 17 55 18 7 35 42 38 
